

*************************************************************

   NEOS Server Version 6.0
   Job#     : 18083577
   Password : upMBFWkU
   User     :
   Solver   : lp:Gurobi:MPS
   Start    : 2025-12-03 09:34:38
   End      : 2025-12-03 09:35:42
   Host     : prod-sub-1.neos-server.org

   Disclaimer:

   This information is provided without any express or
   implied warranty. In particular, there is no warranty
   of any kind concerning the fitness of this
   information for any particular purpose.

   Announcements:
*************************************************************
Set parameter TokenServer to value "opt-license.discovery.wisc.edu"
Read MPS format model from file model.mps
Reading time = 0.02 seconds
: 17528 rows, 7509 columns, 52287 nonzeros


Checking threads settings... (NEOS allows a maximum of 4 threads)
Set parameter Threads to value 4
Gurobi Optimizer version 12.0.3 build v12.0.3rc0 (linux64 - "Rocky Linux 8.10 (Green Obsidian)")

CPU model: Intel(R) Xeon(R) CPU E5-2698 v3 @ 2.30GHz, instruction set [SSE2|AVX|AVX2]
Thread count: 32 physical cores, 64 logical processors, using up to 4 threads

Non-default parameters:
Threads  4

Optimize a model with 17528 rows, 7509 columns and 52287 nonzeros
Model fingerprint: 0x7d7e2744
Variable types: 4913 continuous, 2596 integer (2596 binary)
Coefficient statistics:
  Matrix range     [4e-01, 2e+07]
  Objective range  [3e+02, 1e+04]
  Bounds range     [8e-03, 3e+03]
  RHS range        [1e-03, 2e+07]
Presolve removed 8086 rows and 3531 columns
Presolve time: 0.27s
Presolved: 9442 rows, 3978 columns, 30763 nonzeros
Variable types: 2418 continuous, 1560 integer (1560 binary)

Root relaxation: objective 2.031628e+06, 12672 iterations, 1.93 seconds (1.56 work units)

    Nodes    |    Current Node    |     Objective Bounds      |     Work
 Expl Unexpl |  Obj  Depth IntInf | Incumbent    BestBd   Gap | It/Node Time

     0     0 2031627.92    0  411          - 2031627.92      -     -    2s
     0     0 2031627.92    0  340          - 2031627.92      -     -    4s
     0     0 2031627.92    0  320          - 2031627.92      -     -    4s
     0     0 2031627.92    0   72          - 2031627.92      -     -    6s
     0     0 2031627.92    0   68          - 2031627.92      -     -    6s
     0     0 2031627.92    0   37          - 2031627.92      -     -    6s
     0     0 2031627.92    0   37          - 2031627.92      -     -    6s
     0     0 2031627.92    0   29          - 2031627.92      -     -    6s
     0     0 2031627.92    0   29          - 2031627.92      -     -    6s
     0     0 2031627.92    0   24          - 2031627.92      -     -    6s
     0     0 2031627.92    0   21          - 2031627.92      -     -    7s
     0     0 2031627.92    0   21          - 2031627.92      -     -    7s
     0     0 2031627.92    0   20          - 2031627.92      -     -    7s
     0     0 2031627.92    0   20          - 2031627.92      -     -    7s
     0     0 2031627.92    0   17          - 2031627.92      -     -    7s
     0     0 2031627.92    0   17          - 2031627.92      -     -    7s
     0     0 2031627.92    0   17          - 2031627.92      -     -    7s
     0     0 2031627.92    0   17          - 2031627.92      -     -    7s
     0     2 2031627.92    0   17          - 2031627.92      -     -    8s
   372   480 2031627.92   83   29          - 2031627.92      -  52.1   10s
H  941   968                    2078735.7632 2031627.92  2.27%   108   13s
H  977  1044                    2078735.7611 2031627.92  2.27%   118   14s
H 1019  1044                    2078735.7596 2031627.92  2.27%   121   14s
  1053  1108 2031627.92  184   23 2078735.76 2031627.92  2.27%   125   15s
H 1204  1254                    2076697.5165 2031627.92  2.17%   146   18s
H 1312  1314                    2052325.9107 2031627.92  1.01%   164   19s
H 1323  1379                    2052325.9051 2031627.92  1.01%   165   20s
H 1379  1379                    2045922.9032 2031627.92  0.70%   171   20s
H 1405  1441                    2045915.3417 2031627.92  0.70%   177   21s
  1515  1565 2031627.92  306   42 2045915.34 2031627.92  0.70%   197   25s
  1708  1781 2031627.92  352   36 2045915.34 2031627.92  0.70%   224   30s
H 1821  1874                    2045819.7259 2031627.92  0.69%   239   31s
H 1845  1874                    2045548.6469 2031627.92  0.68%   240   31s
  1950  1993 2031627.92  399   38 2045548.65 2031627.92  0.68%   249   35s
H 1956  1993                    2045548.6432 2031627.92  0.68%   250   35s
H 1983  1993                    2036684.3775 2031627.92  0.25%   254   35s
  2030  2058 2031627.92  418   72 2036684.38 2031627.92  0.25%   270   40s
H 2052  2058                    2036684.3764 2031627.92  0.25%   277   40s
  2107  2161 2031627.92  429   95 2036684.38 2031627.92  0.25%   300   45s
H 2135  2161                    2033922.7615 2031627.92  0.11%   305   45s
H 2183  2211                    2033922.7567 2031627.92  0.11%   312   47s
H 2184  2210                    2033262.1715 2031627.92  0.08%   312   47s
  2223  2265     cutoff  442      2033262.17 2031627.92  0.08%   320   50s
H 2237  2261                    2032392.0891 2031627.92  0.04%   320   50s
H 2257  2253                    2031781.1985 2031627.92  0.01%   319   50s
* 2270   275             540    2031627.9150 2031627.92  0.00%   318   50s

Cutting planes:
  Learned: 27
  Gomory: 31
  Cover: 58
  Implied bound: 3
  Clique: 2
  MIR: 109
  StrongCG: 2
  Relax-and-lift: 25

Explored 2308 nodes (786516 simplex iterations) in 50.25 seconds (76.19 work units)
Thread count was 4 (of 64 available processors)

Solution count 10: 2.03163e+06 2.03178e+06 2.03239e+06 ... 2.04555e+06

Optimal solution found (tolerance 1.00e-04)
Best objective 2.031627915049e+06, best bound 2.031627915049e+06, gap 0.0000%


NEOS Server Home
